c defined variables: 19 20 21 22 23 24 25 26 27 28 29 30 31 32 33 34 35 36 37 38 39 40 41 42 43 44 45 48 49 50 51 52 53 54 55 56 57 58 59 60 61 62 63 64 65 66 67 68 69 70 71 72 73 74 75 76 77 78 79 80 81 82 83 85 86 87 88 89 90 91 92 93 94 95 96 97 98 99 100 101 102 103 104 105 106 107 108 109 110 111 112 113 114 115 116 117 118 119 
p cnf 516 774
a 1 3 4 5 6 7 8 9 10 11 12 13 14 15 16 0
e 46 47 84 19 20 21 22 23 24 25 26 27 28 29 30 31 32 33 34 35 36 37 38 39 40 41 42 43 44 45 48 49 50 51 52 53 54 55 56 57 58 59 60 61 62 63 64 65 66 67 68 69 70 71 72 73 74 75 76 77 78 79 80 81 82 83 85 86 87 88 89 90 91 92 93 94 95 96 97 98 99 100 101 102 103 104 105 106 107 108 109 110 111 112 113 114 115 116 117 118 119 425 426 427 428 429 430 431 432 433 434 435 436 437 438 439 440 441 442 443 444 445 446 447 448 449 450 451 452 453 454 455 456 457 458 459 460 461 462 463 464 465 466 467 468 469 470 471 472 473 474 475 476 477 478 479 480 481 482 483 484 485 486 487 488 489 490 491 492 493 494 495 496 497 498 499 500 501 502 503 504 505 506 507 508 509 510 511 512 513 514 515 516 0
d 2 1 3 4 5 6 7 8 9 0
d 17 3 4 5 6 7 8 9 0
d 18 10 11 12 13 14 15 16 0
426 -19 0
-426 19 0
427 -20 0
-427 20 0
428 -21 0
-428 21 0
429 -22 0
-429 22 0
430 -23 0
-430 23 0
431 -24 0
-431 24 0
432 -25 0
-432 25 0
433 -26 0
-433 26 0
434 -27 0
-434 27 0
435 -28 0
-435 28 0
436 -29 0
-436 29 0
437 -30 0
-437 30 0
438 -31 0
-438 31 0
439 -32 0
-439 32 0
440 -33 0
-440 33 0
441 -34 0
-441 34 0
442 -35 0
-442 35 0
443 -36 0
-443 36 0
444 -37 0
-444 37 0
445 -38 0
-445 38 0
446 -39 0
-446 39 0
447 -40 0
-447 40 0
448 -41 0
-448 41 0
449 -42 0
-449 42 0
450 -43 0
-450 43 0
451 -44 0
-451 44 0
452 -45 0
-452 45 0
453 -48 0
-453 48 0
-425 -49 0
425 49 0
454 -50 0
-454 50 0
455 -51 0
-455 51 0
456 -52 0
-456 52 0
-457 -53 0
457 53 0
458 -54 0
-458 54 0
459 -55 0
-459 55 0
460 -56 0
-460 56 0
461 -57 0
-461 57 0
462 -58 0
-462 58 0
463 -59 0
-463 59 0
464 -60 0
-464 60 0
465 -61 0
-465 61 0
466 -62 0
-466 62 0
467 -63 0
-467 63 0
468 -64 0
-468 64 0
469 -65 0
-469 65 0
470 -66 0
-470 66 0
471 -67 0
-471 67 0
472 -68 0
-472 68 0
473 -69 0
-473 69 0
474 -70 0
-474 70 0
475 -71 0
-475 71 0
476 -72 0
-476 72 0
477 -73 0
-477 73 0
478 -74 0
-478 74 0
479 -75 0
-479 75 0
480 -76 0
-480 76 0
481 -77 0
-481 77 0
482 -78 0
-482 78 0
483 -79 0
-483 79 0
484 -80 0
-484 80 0
485 -81 0
-485 81 0
486 -82 0
-486 82 0
487 -83 0
-487 83 0
488 -85 0
-488 85 0
489 -86 0
-489 86 0
490 -87 0
-490 87 0
491 -88 0
-491 88 0
492 -89 0
-492 89 0
493 -90 0
-493 90 0
494 -91 0
-494 91 0
495 -92 0
-495 92 0
496 -93 0
-496 93 0
497 -94 0
-497 94 0
498 -95 0
-498 95 0
499 -96 0
-499 96 0
500 -97 0
-500 97 0
501 -98 0
-501 98 0
502 -99 0
-502 99 0
503 -100 0
-503 100 0
504 -101 0
-504 101 0
505 -102 0
-505 102 0
506 -103 0
-506 103 0
507 -104 0
-507 104 0
508 -105 0
-508 105 0
509 -106 0
-509 106 0
-425 -107 0
425 107 0
510 -108 0
-510 108 0
-425 -109 0
425 109 0
511 -110 0
-511 110 0
512 -111 0
-512 111 0
513 -112 0
-513 112 0
514 -113 0
-514 113 0
515 -114 0
-515 114 0
516 -115 0
-516 115 0
-425 -116 0
425 116 0
425 -117 0
-425 117 0
425 -118 0
-425 118 0
425 -119 0
-425 119 0
-19 -10 0
-19 3 0
19 10 -3 0
-20 10 0
-20 -3 0
20 -10 3 0
-21 -19 0
-21 -20 0
21 19 20 0
-22 -11 0
-22 4 0
22 11 -4 0
-23 11 0
-23 -4 0
23 -11 4 0
-24 -22 0
-24 -23 0
24 22 23 0
-25 21 0
-25 24 0
25 -21 -24 0
-26 -12 0
-26 5 0
26 12 -5 0
-27 12 0
-27 -5 0
27 -12 5 0
-28 -26 0
-28 -27 0
28 26 27 0
-29 -13 0
-29 6 0
29 13 -6 0
-30 13 0
-30 -6 0
30 -13 6 0
-31 -29 0
-31 -30 0
31 29 30 0
-32 28 0
-32 31 0
32 -28 -31 0
-33 25 0
-33 32 0
33 -25 -32 0
-34 -16 0
-34 9 0
34 16 -9 0
-35 16 0
-35 -9 0
35 -16 9 0
-36 -34 0
-36 -35 0
36 34 35 0
-37 -14 0
-37 7 0
37 14 -7 0
-38 14 0
-38 -7 0
38 -14 7 0
-39 -37 0
-39 -38 0
39 37 38 0
-40 -15 0
-40 8 0
40 15 -8 0
-41 15 0
-41 -8 0
41 -15 8 0
-42 -40 0
-42 -41 0
42 40 41 0
-43 39 0
-43 42 0
43 -39 -42 0
-44 36 0
-44 43 0
44 -36 -43 0
-45 33 0
-45 44 0
45 -33 -44 0
-46 18 0
-46 -17 0
46 -18 17 0
-47 -18 0
-47 17 0
47 18 -17 0
-48 -46 0
-48 -47 0
48 46 47 0
-49 45 0
-49 -48 0
49 -45 48 0
-50 4 0
-50 3 0
50 -4 -3 0
-51 -1 0
-51 50 0
51 1 -50 0
-52 1 0
-52 -50 0
52 -1 50 0
53 -51 0
53 -52 0
-53 51 52 0
-54 -11 0
-54 -53 0
54 11 53 0
-55 11 0
-55 53 0
55 -11 -53 0
-56 -54 0
-56 -55 0
56 54 55 0
-57 10 0
-57 56 0
57 -10 -56 0
-58 5 0
-58 3 0
58 -5 -3 0
-59 -58 0
-59 51 0
59 58 -51 0
-60 58 0
-60 -51 0
60 -58 51 0
-61 -59 0
-61 -60 0
61 59 60 0
-62 -12 0
-62 -61 0
62 12 61 0
-63 12 0
-63 61 0
63 -12 -61 0
-64 -62 0
-64 -63 0
64 62 63 0
-65 6 0
-65 3 0
65 -6 -3 0
-66 4 0
-66 58 0
66 -4 -58 0
-67 -1 0
-67 66 0
67 1 -66 0
-68 -65 0
-68 67 0
68 65 -67 0
-69 65 0
-69 -67 0
69 -65 67 0
-70 -68 0
-70 -69 0
70 68 69 0
-71 -13 0
-71 -70 0
71 13 70 0
-72 13 0
-72 70 0
72 -13 -70 0
-73 -71 0
-73 -72 0
73 71 72 0
-74 64 0
-74 73 0
74 -64 -73 0
-75 57 0
-75 74 0
75 -57 -74 0
-76 9 0
-76 3 0
76 -9 -3 0
-77 66 0
-77 65 0
77 -66 -65 0
-78 7 0
-78 3 0
78 -7 -3 0
-79 77 0
-79 78 0
79 -77 -78 0
-80 8 0
-80 3 0
80 -8 -3 0
-81 79 0
-81 80 0
81 -79 -80 0
-82 -1 0
-82 81 0
82 1 -81 0
-83 -76 0
-83 -82 0
83 76 82 0
-84 -2 0
-84 -76 0
84 2 76 0
-85 82 0
-85 -84 0
85 -82 84 0
-86 -83 0
-86 -85 0
86 83 85 0
-87 -16 0
-87 86 0
87 16 -86 0
-88 16 0
-88 -86 0
88 -16 86 0
-89 -87 0
-89 -88 0
89 87 88 0
-90 -1 0
-90 77 0
90 1 -77 0
-91 -78 0
-91 90 0
91 78 -90 0
-92 78 0
-92 -90 0
92 -78 90 0
-93 -91 0
-93 -92 0
93 91 92 0
-94 -14 0
-94 -93 0
94 14 93 0
-95 14 0
-95 93 0
95 -14 -93 0
-96 -94 0
-96 -95 0
96 94 95 0
-97 -1 0
-97 79 0
97 1 -79 0
-98 -80 0
-98 97 0
98 80 -97 0
-99 80 0
-99 -97 0
99 -80 97 0
-100 -98 0
-100 -99 0
100 98 99 0
-101 -15 0
-101 -100 0
101 15 100 0
-102 15 0
-102 100 0
102 -15 -100 0
-103 -101 0
-103 -102 0
103 101 102 0
-104 96 0
-104 103 0
104 -96 -103 0
-105 89 0
-105 104 0
105 -89 -104 0
-106 75 0
-106 105 0
106 -75 -105 0
-107 106 0
-107 47 0
107 -106 -47 0
-108 81 0
-108 76 0
108 -81 -76 0
-109 17 0
-109 108 0
109 -17 -108 0
-110 -4 0
-110 -3 0
110 4 3 0
-111 -6 0
-111 -5 0
111 6 5 0
-112 110 0
-112 111 0
112 -110 -111 0
-113 -8 0
-113 -7 0
113 8 7 0
-114 -9 0
-114 113 0
114 9 -113 0
-115 112 0
-115 114 0
115 -112 -114 0
-116 -17 0
-116 115 0
116 17 -115 0
-117 -109 0
-117 -116 0
117 109 116 0
-118 -107 0
-118 117 0
118 107 -117 0
-119 -49 0
-119 118 0
119 49 -118 0
119 0
425 0
3 -426 0
-10 -426 0
-3 10 426 0
-3 -427 0
10 -427 0
3 -10 427 0
-19 -428 0
-20 -428 0
19 20 428 0
4 -429 0
-11 -429 0
-4 11 429 0
-4 -430 0
11 -430 0
4 -11 430 0
-22 -431 0
-23 -431 0
22 23 431 0
21 -432 0
24 -432 0
-21 -24 432 0
5 -433 0
-12 -433 0
-5 12 433 0
-5 -434 0
12 -434 0
5 -12 434 0
-26 -435 0
-27 -435 0
26 27 435 0
6 -436 0
-13 -436 0
-6 13 436 0
-6 -437 0
13 -437 0
6 -13 437 0
-29 -438 0
-30 -438 0
29 30 438 0
28 -439 0
31 -439 0
-28 -31 439 0
25 -440 0
32 -440 0
-25 -32 440 0
9 -441 0
-16 -441 0
-9 16 441 0
-9 -442 0
16 -442 0
9 -16 442 0
-34 -443 0
-35 -443 0
34 35 443 0
7 -444 0
-14 -444 0
-7 14 444 0
-7 -445 0
14 -445 0
7 -14 445 0
-37 -446 0
-38 -446 0
37 38 446 0
8 -447 0
-15 -447 0
-8 15 447 0
-8 -448 0
15 -448 0
8 -15 448 0
-40 -449 0
-41 -449 0
40 41 449 0
39 -450 0
42 -450 0
-39 -42 450 0
36 -451 0
43 -451 0
-36 -43 451 0
33 -452 0
44 -452 0
-33 -44 452 0
-46 -453 0
-47 -453 0
46 47 453 0
3 -454 0
4 -454 0
-3 -4 454 0
-1 -455 0
50 -455 0
1 -50 455 0
1 -456 0
-50 -456 0
-1 50 456 0
-51 -457 0
-52 -457 0
51 52 457 0
-11 -458 0
-53 -458 0
11 53 458 0
11 -459 0
53 -459 0
-11 -53 459 0
-54 -460 0
-55 -460 0
54 55 460 0
10 -461 0
56 -461 0
-10 -56 461 0
3 -462 0
5 -462 0
-3 -5 462 0
51 -463 0
-58 -463 0
-51 58 463 0
-51 -464 0
58 -464 0
51 -58 464 0
-59 -465 0
-60 -465 0
59 60 465 0
-12 -466 0
-61 -466 0
12 61 466 0
12 -467 0
61 -467 0
-12 -61 467 0
-62 -468 0
-63 -468 0
62 63 468 0
3 -469 0
6 -469 0
-3 -6 469 0
4 -470 0
58 -470 0
-4 -58 470 0
-1 -471 0
66 -471 0
1 -66 471 0
-65 -472 0
67 -472 0
65 -67 472 0
65 -473 0
-67 -473 0
-65 67 473 0
-68 -474 0
-69 -474 0
68 69 474 0
-13 -475 0
-70 -475 0
13 70 475 0
13 -476 0
70 -476 0
-13 -70 476 0
-71 -477 0
-72 -477 0
71 72 477 0
64 -478 0
73 -478 0
-64 -73 478 0
57 -479 0
74 -479 0
-57 -74 479 0
3 -480 0
9 -480 0
-3 -9 480 0
65 -481 0
66 -481 0
-65 -66 481 0
3 -482 0
7 -482 0
-3 -7 482 0
77 -483 0
78 -483 0
-77 -78 483 0
3 -484 0
8 -484 0
-3 -8 484 0
79 -485 0
80 -485 0
-79 -80 485 0
-1 -486 0
81 -486 0
1 -81 486 0
-76 -487 0
-82 -487 0
76 82 487 0
82 -488 0
-84 -488 0
-82 84 488 0
-83 -489 0
-85 -489 0
83 85 489 0
-16 -490 0
86 -490 0
16 -86 490 0
16 -491 0
-86 -491 0
-16 86 491 0
-87 -492 0
-88 -492 0
87 88 492 0
-1 -493 0
77 -493 0
1 -77 493 0
-78 -494 0
90 -494 0
78 -90 494 0
78 -495 0
-90 -495 0
-78 90 495 0
-91 -496 0
-92 -496 0
91 92 496 0
-14 -497 0
-93 -497 0
14 93 497 0
14 -498 0
93 -498 0
-14 -93 498 0
-94 -499 0
-95 -499 0
94 95 499 0
-1 -500 0
79 -500 0
1 -79 500 0
-80 -501 0
97 -501 0
80 -97 501 0
80 -502 0
-97 -502 0
-80 97 502 0
-98 -503 0
-99 -503 0
98 99 503 0
-15 -504 0
-100 -504 0
15 100 504 0
15 -505 0
100 -505 0
-15 -100 505 0
-101 -506 0
-102 -506 0
101 102 506 0
96 -507 0
103 -507 0
-96 -103 507 0
89 -508 0
104 -508 0
-89 -104 508 0
75 -509 0
105 -509 0
-75 -105 509 0
76 -510 0
81 -510 0
-76 -81 510 0
-3 -511 0
-4 -511 0
3 4 511 0
-5 -512 0
-6 -512 0
5 6 512 0
110 -513 0
111 -513 0
-110 -111 513 0
-7 -514 0
-8 -514 0
7 8 514 0
-9 -515 0
113 -515 0
9 -113 515 0
112 -516 0
114 -516 0
-112 -114 516 0
